c FILE: i160-141

c SOURCE: From steinlib

c DESCRIPTION: Steinlib instance with 160 nodes and 2544 edges.

p edge 160 2544
e 1 3
e 1 4
e 1 6
e 1 9
e 1 11
e 1 13
e 1 18
e 1 19
e 1 24
e 1 26
e 1 33
e 1 42
e 1 49
e 1 57
e 1 58
e 1 60
e 1 65
e 1 72
e 1 74
e 1 76
e 1 80
e 1 85
e 1 96
e 1 97
e 1 108
e 1 111
e 1 114
e 1 130
e 1 131
e 1 146
e 1 148
e 1 150
e 1 154
e 1 155
e 1 156
e 1 160
e 2 7
e 2 12
e 2 14
e 2 23
e 2 24
e 2 27
e 2 28
e 2 33
e 2 38
e 2 56
e 2 57
e 2 67
e 2 74
e 2 75
e 2 78
e 2 82
e 2 85
e 2 91
e 2 93
e 2 95
e 2 101
e 2 108
e 2 112
e 2 123
e 2 127
e 2 129
e 2 133
e 2 138
e 2 141
e 2 146
e 2 149
e 2 157
e 2 158
e 2 160
e 3 5
e 3 6
e 3 9
e 3 14
e 3 16
e 3 18
e 3 20
e 3 26
e 3 31
e 3 37
e 3 60
e 3 64
e 3 65
e 3 68
e 3 86
e 3 91
e 3 92
e 3 96
e 3 111
e 3 122
e 3 125
e 3 128
e 3 129
e 3 131
e 3 133
e 3 134
e 3 137
e 3 143
e 3 155
e 3 159
e 4 10
e 4 11
e 4 22
e 4 23
e 4 26
e 4 27
e 4 28
e 4 30
e 4 31
e 4 43
e 4 44
e 4 49
e 4 55
e 4 60
e 4 61
e 4 64
e 4 66
e 4 70
e 4 71
e 4 75
e 4 85
e 4 88
e 4 89
e 4 92
e 4 94
e 4 100
e 4 103
e 4 104
e 4 105
e 4 106
e 4 108
e 4 113
e 4 119
e 4 131
e 4 132
e 4 133
e 4 135
e 4 146
e 4 148
e 4 151
e 5 7
e 5 13
e 5 14
e 5 16
e 5 24
e 5 26
e 5 27
e 5 29
e 5 43
e 5 48
e 5 53
e 5 67
e 5 70
e 5 82
e 5 86
e 5 89
e 5 90
e 5 91
e 5 93
e 5 101
e 5 102
e 5 117
e 5 118
e 5 121
e 5 124
e 5 131
e 5 132
e 5 143
e 5 149
e 5 151
e 5 158
e 5 160
e 6 10
e 6 12
e 6 16
e 6 17
e 6 22
e 6 25
e 6 26
e 6 32
e 6 48
e 6 52
e 6 55
e 6 57
e 6 58
e 6 59
e 6 60
e 6 61
e 6 67
e 6 69
e 6 80
e 6 85
e 6 91
e 6 106
e 6 107
e 6 110
e 6 117
e 6 122
e 6 125
e 6 137
e 6 138
e 6 143
e 6 145
e 6 148
e 6 151
e 6 158
e 6 159
e 7 12
e 7 18
e 7 19
e 7 22
e 7 23
e 7 34
e 7 37
e 7 45
e 7 46
e 7 48
e 7 54
e 7 80
e 7 82
e 7 97
e 7 103
e 7 105
e 7 118
e 7 119
e 7 124
e 7 125
e 7 138
e 7 141
e 7 149
e 7 151
e 8 10
e 8 17
e 8 19
e 8 26
e 8 29
e 8 30
e 8 31
e 8 33
e 8 41
e 8 49
e 8 64
e 8 67
e 8 69
e 8 72
e 8 73
e 8 81
e 8 83
e 8 84
e 8 95
e 8 97
e 8 99
e 8 109
e 8 110
e 8 112
e 8 118
e 8 119
e 8 133
e 8 137
e 8 145
e 8 147
e 8 148
e 8 149
e 8 151
e 8 157
e 8 159
e 9 13
e 9 17
e 9 19
e 9 24
e 9 31
e 9 34
e 9 37
e 9 41
e 9 45
e 9 50
e 9 54
e 9 60
e 9 71
e 9 73
e 9 79
e 9 80
e 9 81
e 9 85
e 9 86
e 9 90
e 9 92
e 9 94
e 9 96
e 9 98
e 9 105
e 9 109
e 9 112
e 9 113
e 9 118
e 9 120
e 9 126
e 9 131
e 9 139
e 9 143
e 9 144
e 9 148
e 9 149
e 9 151
e 9 153
e 9 154
e 10 11
e 10 24
e 10 40
e 10 41
e 10 47
e 10 48
e 10 50
e 10 56
e 10 57
e 10 68
e 10 71
e 10 73
e 10 80
e 10 91
e 10 96
e 10 97
e 10 101
e 10 106
e 10 107
e 10 110
e 10 122
e 10 123
e 10 125
e 10 134
e 10 137
e 10 139
e 10 141
e 10 146
e 10 158
e 11 13
e 11 29
e 11 43
e 11 65
e 11 67
e 11 85
e 11 90
e 11 91
e 11 97
e 11 103
e 11 105
e 11 110
e 11 115
e 11 118
e 11 127
e 11 131
e 11 133
e 11 135
e 11 144
e 11 146
e 11 147
e 11 154
e 12 15
e 12 16
e 12 18
e 12 29
e 12 31
e 12 35
e 12 37
e 12 43
e 12 47
e 12 55
e 12 57
e 12 61
e 12 66
e 12 76
e 12 88
e 12 89
e 12 93
e 12 94
e 12 102
e 12 104
e 12 109
e 12 112
e 12 133
e 12 135
e 13 16
e 13 22
e 13 23
e 13 32
e 13 34
e 13 36
e 13 54
e 13 55
e 13 64
e 13 79
e 13 80
e 13 85
e 13 88
e 13 94
e 13 101
e 13 112
e 13 113
e 13 115
e 13 120
e 13 123
e 13 124
e 13 130
e 13 131
e 13 132
e 13 138
e 13 140
e 13 143
e 13 148
e 13 152
e 14 16
e 14 19
e 14 24
e 14 25
e 14 35
e 14 51
e 14 57
e 14 72
e 14 86
e 14 91
e 14 93
e 14 97
e 14 98
e 14 108
e 14 111
e 14 119
e 14 120
e 14 121
e 14 123
e 14 125
e 14 138
e 14 141
e 14 144
e 14 148
e 14 158
e 15 21
e 15 23
e 15 28
e 15 42
e 15 45
e 15 52
e 15 55
e 15 68
e 15 70
e 15 76
e 15 77
e 15 88
e 15 92
e 15 93
e 15 97
e 15 101
e 15 109
e 15 116
e 15 118
e 15 119
e 15 126
e 15 132
e 15 133
e 15 134
e 15 137
e 15 141
e 15 143
e 15 153
e 16 24
e 16 30
e 16 33
e 16 38
e 16 45
e 16 48
e 16 59
e 16 65
e 16 67
e 16 73
e 16 74
e 16 75
e 16 92
e 16 110
e 16 111
e 16 120
e 16 123
e 16 129
e 16 130
e 16 132
e 16 134
e 16 142
e 16 145
e 16 147
e 16 149
e 16 153
e 16 158
e 16 159
e 16 160
e 17 18
e 17 23
e 17 25
e 17 26
e 17 30
e 17 31
e 17 34
e 17 44
e 17 49
e 17 60
e 17 61
e 17 71
e 17 78
e 17 83
e 17 94
e 17 95
e 17 97
e 17 100
e 17 115
e 17 117
e 17 121
e 17 123
e 17 128
e 17 132
e 17 133
e 17 138
e 17 139
e 17 144
e 17 156
e 18 24
e 18 25
e 18 26
e 18 27
e 18 32
e 18 39
e 18 44
e 18 47
e 18 48
e 18 55
e 18 59
e 18 62
e 18 71
e 18 80
e 18 82
e 18 87
e 18 88
e 18 103
e 18 104
e 18 105
e 18 116
e 18 122
e 18 131
e 18 135
e 18 143
e 18 146
e 18 147
e 18 148
e 18 149
e 18 152
e 19 23
e 19 30
e 19 32
e 19 37
e 19 40
e 19 44
e 19 47
e 19 57
e 19 75
e 19 78
e 19 86
e 19 92
e 19 113
e 19 116
e 19 122
e 19 132
e 19 133
e 19 138
e 19 141
e 19 142
e 19 151
e 20 29
e 20 36
e 20 37
e 20 46
e 20 52
e 20 54
e 20 56
e 20 63
e 20 70
e 20 71
e 20 72
e 20 75
e 20 76
e 20 77
e 20 87
e 20 91
e 20 107
e 20 114
e 20 118
e 20 124
e 20 125
e 20 129
e 20 135
e 20 138
e 20 153
e 20 155
e 20 157
e 20 158
e 21 22
e 21 23
e 21 28
e 21 31
e 21 35
e 21 52
e 21 54
e 21 55
e 21 57
e 21 58
e 21 67
e 21 95
e 21 105
e 21 109
e 21 131
e 21 133
e 21 138
e 21 146
e 21 149
e 21 151
e 21 154
e 22 28
e 22 43
e 22 46
e 22 47
e 22 54
e 22 57
e 22 64
e 22 66
e 22 71
e 22 73
e 22 86
e 22 88
e 22 92
e 22 98
e 22 104
e 22 109
e 22 110
e 22 113
e 22 114
e 22 120
e 22 131
e 22 134
e 22 136
e 22 141
e 22 145
e 22 149
e 22 151
e 22 157
e 22 158
e 23 24
e 23 25
e 23 29
e 23 31
e 23 32
e 23 62
e 23 70
e 23 71
e 23 72
e 23 74
e 23 76
e 23 77
e 23 79
e 23 80
e 23 82
e 23 94
e 23 100
e 23 101
e 23 104
e 23 105
e 23 110
e 23 113
e 23 116
e 23 122
e 23 124
e 23 126
e 23 132
e 23 133
e 23 145
e 24 28
e 24 32
e 24 37
e 24 38
e 24 45
e 24 69
e 24 71
e 24 73
e 24 79
e 24 83
e 24 86
e 24 94
e 24 96
e 24 97
e 24 100
e 24 107
e 24 115
e 24 117
e 24 118
e 24 124
e 24 135
e 24 150
e 24 158
e 25 26
e 25 27
e 25 29
e 25 35
e 25 40
e 25 44
e 25 50
e 25 52
e 25 54
e 25 59
e 25 62
e 25 76
e 25 77
e 25 80
e 25 91
e 25 95
e 25 99
e 25 107
e 25 116
e 25 118
e 25 122
e 25 125
e 25 126
e 25 128
e 25 131
e 25 139
e 25 141
e 25 142
e 25 151
e 25 159
e 26 33
e 26 37
e 26 44
e 26 50
e 26 52
e 26 53
e 26 55
e 26 60
e 26 64
e 26 69
e 26 78
e 26 85
e 26 91
e 26 96
e 26 97
e 26 99
e 26 103
e 26 109
e 26 116
e 26 121
e 26 129
e 26 131
e 26 148
e 26 156
e 26 158
e 27 29
e 27 32
e 27 36
e 27 40
e 27 41
e 27 46
e 27 47
e 27 48
e 27 49
e 27 51
e 27 56
e 27 57
e 27 58
e 27 63
e 27 65
e 27 67
e 27 76
e 27 77
e 27 78
e 27 83
e 27 84
e 27 89
e 27 92
e 27 94
e 27 96
e 27 98
e 27 102
e 27 103
e 27 104
e 27 116
e 27 119
e 27 123
e 27 125
e 27 129
e 27 134
e 28 31
e 28 33
e 28 47
e 28 64
e 28 70
e 28 72
e 28 78
e 28 85
e 28 88
e 28 91
e 28 99
e 28 102
e 28 104
e 28 110
e 28 113
e 28 116
e 28 122
e 28 127
e 28 130
e 28 135
e 28 144
e 28 156
e 29 34
e 29 35
e 29 49
e 29 55
e 29 60
e 29 63
e 29 64
e 29 72
e 29 75
e 29 76
e 29 77
e 29 95
e 29 96
e 29 98
e 29 102
e 29 107
e 29 113
e 29 119
e 29 120
e 29 134
e 29 135
e 29 142
e 29 147
e 29 153
e 29 160
e 30 32
e 30 35
e 30 36
e 30 40
e 30 46
e 30 47
e 30 53
e 30 54
e 30 55
e 30 57
e 30 60
e 30 61
e 30 65
e 30 68
e 30 96
e 30 99
e 30 104
e 30 106
e 30 109
e 30 114
e 30 115
e 30 116
e 30 119
e 30 122
e 30 124
e 30 127
e 30 129
e 30 137
e 30 138
e 30 146
e 30 150
e 30 158
e 30 159
e 31 34
e 31 35
e 31 36
e 31 38
e 31 48
e 31 53
e 31 67
e 31 72
e 31 76
e 31 82
e 31 84
e 31 87
e 31 88
e 31 89
e 31 101
e 31 111
e 31 117
e 31 124
e 31 127
e 31 133
e 31 139
e 31 143
e 31 153
e 31 159
e 32 41
e 32 50
e 32 53
e 32 54
e 32 55
e 32 61
e 32 62
e 32 63
e 32 65
e 32 68
e 32 70
e 32 76
e 32 77
e 32 86
e 32 90
e 32 91
e 32 99
e 32 122
e 32 131
e 32 132
e 32 136
e 32 145
e 32 151
e 32 153
e 33 44
e 33 46
e 33 50
e 33 52
e 33 68
e 33 90
e 33 109
e 33 115
e 33 117
e 33 136
e 33 138
e 33 146
e 33 151
e 33 158
e 34 36
e 34 38
e 34 42
e 34 50
e 34 52
e 34 61
e 34 65
e 34 71
e 34 73
e 34 76
e 34 79
e 34 85
e 34 86
e 34 98
e 34 108
e 34 114
e 34 116
e 34 118
e 34 119
e 34 123
e 34 132
e 34 143
e 34 150
e 34 153
e 34 154
e 34 159
e 35 43
e 35 45
e 35 47
e 35 48
e 35 51
e 35 58
e 35 68
e 35 69
e 35 77
e 35 88
e 35 91
e 35 92
e 35 93
e 35 99
e 35 109
e 35 121
e 35 126
e 35 134
e 35 137
e 35 140
e 35 143
e 35 144
e 35 145
e 35 146
e 35 148
e 35 153
e 35 154
e 36 50
e 36 51
e 36 56
e 36 58
e 36 66
e 36 68
e 36 79
e 36 82
e 36 83
e 36 87
e 36 97
e 36 110
e 36 114
e 36 118
e 36 119
e 36 126
e 36 131
e 36 133
e 36 135
e 36 146
e 36 148
e 36 154
e 37 40
e 37 51
e 37 52
e 37 54
e 37 56
e 37 61
e 37 66
e 37 67
e 37 71
e 37 74
e 37 76
e 37 77
e 37 83
e 37 102
e 37 104
e 37 108
e 37 111
e 37 115
e 37 117
e 37 119
e 37 123
e 37 124
e 37 127
e 37 131
e 37 133
e 37 148
e 37 153
e 38 39
e 38 56
e 38 58
e 38 71
e 38 74
e 38 75
e 38 82
e 38 88
e 38 90
e 38 94
e 38 95
e 38 102
e 38 107
e 38 112
e 38 113
e 38 115
e 38 118
e 38 120
e 38 127
e 38 129
e 38 131
e 38 136
e 38 148
e 38 149
e 38 152
e 39 54
e 39 57
e 39 60
e 39 71
e 39 73
e 39 79
e 39 83
e 39 89
e 39 90
e 39 98
e 39 99
e 39 102
e 39 103
e 39 110
e 39 116
e 39 122
e 39 124
e 39 128
e 39 132
e 39 133
e 39 144
e 39 148
e 39 149
e 39 155
e 40 43
e 40 46
e 40 55
e 40 60
e 40 69
e 40 70
e 40 76
e 40 79
e 40 80
e 40 86
e 40 88
e 40 101
e 40 107
e 40 113
e 40 119
e 40 125
e 40 126
e 40 128
e 40 131
e 40 133
e 40 144
e 40 145
e 40 148
e 41 43
e 41 50
e 41 52
e 41 56
e 41 58
e 41 59
e 41 68
e 41 73
e 41 79
e 41 81
e 41 85
e 41 91
e 41 103
e 41 104
e 41 110
e 41 111
e 41 117
e 41 120
e 41 125
e 41 137
e 41 147
e 41 149
e 41 152
e 41 153
e 41 157
e 42 45
e 42 48
e 42 49
e 42 59
e 42 63
e 42 67
e 42 72
e 42 76
e 42 87
e 42 92
e 42 99
e 42 102
e 42 105
e 42 107
e 42 113
e 42 119
e 42 128
e 42 129
e 42 134
e 42 136
e 42 137
e 42 141
e 42 149
e 42 151
e 42 152
e 42 153
e 42 154
e 42 155
e 42 160
e 43 44
e 43 46
e 43 47
e 43 50
e 43 59
e 43 60
e 43 61
e 43 71
e 43 74
e 43 79
e 43 83
e 43 86
e 43 95
e 43 102
e 43 103
e 43 112
e 43 123
e 43 129
e 43 138
e 43 141
e 43 149
e 43 153
e 43 160
e 44 48
e 44 50
e 44 51
e 44 55
e 44 56
e 44 61
e 44 64
e 44 67
e 44 75
e 44 78
e 44 83
e 44 84
e 44 90
e 44 91
e 44 94
e 44 96
e 44 99
e 44 103
e 44 111
e 44 116
e 44 123
e 44 132
e 44 133
e 44 135
e 44 139
e 44 149
e 44 152
e 44 157
e 45 50
e 45 52
e 45 65
e 45 69
e 45 73
e 45 96
e 45 99
e 45 105
e 45 121
e 45 125
e 45 126
e 45 133
e 45 141
e 45 149
e 45 154
e 45 155
e 45 160
e 46 48
e 46 49
e 46 57
e 46 64
e 46 65
e 46 78
e 46 79
e 46 97
e 46 98
e 46 101
e 46 106
e 46 110
e 46 112
e 46 124
e 46 134
e 46 139
e 46 142
e 46 146
e 46 160
e 47 48
e 47 52
e 47 61
e 47 64
e 47 67
e 47 72
e 47 75
e 47 86
e 47 99
e 47 100
e 47 102
e 47 106
e 47 113
e 47 122
e 47 133
e 47 138
e 47 139
e 47 141
e 47 150
e 47 151
e 47 153
e 47 155
e 47 157
e 48 55
e 48 59
e 48 60
e 48 68
e 48 74
e 48 80
e 48 85
e 48 87
e 48 88
e 48 90
e 48 92
e 48 102
e 48 103
e 48 123
e 48 129
e 48 134
e 48 137
e 48 138
e 48 140
e 48 141
e 48 145
e 48 147
e 48 156
e 49 50
e 49 51
e 49 55
e 49 58
e 49 59
e 49 61
e 49 62
e 49 64
e 49 77
e 49 78
e 49 81
e 49 85
e 49 89
e 49 90
e 49 91
e 49 93
e 49 94
e 49 97
e 49 100
e 49 105
e 49 108
e 49 113
e 49 115
e 49 116
e 49 145
e 49 147
e 49 149
e 49 156
e 50 51
e 50 57
e 50 61
e 50 65
e 50 68
e 50 72
e 50 74
e 50 75
e 50 77
e 50 83
e 50 84
e 50 85
e 50 86
e 50 93
e 50 94
e 50 99
e 50 104
e 50 108
e 50 113
e 50 115
e 50 118
e 50 122
e 50 136
e 50 141
e 50 146
e 50 147
e 50 155
e 51 54
e 51 68
e 51 73
e 51 74
e 51 79
e 51 86
e 51 90
e 51 94
e 51 95
e 51 96
e 51 99
e 51 114
e 51 115
e 51 132
e 51 143
e 51 154
e 51 157
e 51 158
e 51 159
e 52 56
e 52 64
e 52 65
e 52 67
e 52 68
e 52 70
e 52 72
e 52 74
e 52 84
e 52 91
e 52 97
e 52 111
e 52 125
e 52 127
e 52 128
e 52 130
e 52 136
e 52 140
e 52 141
e 52 142
e 52 144
e 52 150
e 52 153
e 52 157
e 53 57
e 53 69
e 53 78
e 53 81
e 53 86
e 53 90
e 53 117
e 53 118
e 53 126
e 53 127
e 53 143
e 53 145
e 53 148
e 53 149
e 53 154
e 53 155
e 53 158
e 53 159
e 54 61
e 54 62
e 54 84
e 54 86
e 54 91
e 54 99
e 54 105
e 54 121
e 54 129
e 54 140
e 54 160
e 55 56
e 55 64
e 55 66
e 55 67
e 55 82
e 55 83
e 55 96
e 55 98
e 55 101
e 55 116
e 55 118
e 55 127
e 55 130
e 55 136
e 55 138
e 55 149
e 55 156
e 56 69
e 56 70
e 56 71
e 56 72
e 56 77
e 56 82
e 56 84
e 56 100
e 56 101
e 56 106
e 56 108
e 56 120
e 56 124
e 56 127
e 56 130
e 56 134
e 56 137
e 56 160
e 57 61
e 57 73
e 57 75
e 57 80
e 57 82
e 57 91
e 57 92
e 57 94
e 57 106
e 57 107
e 57 114
e 57 116
e 57 124
e 57 128
e 57 132
e 57 137
e 57 138
e 57 140
e 57 151
e 57 152
e 57 156
e 57 157
e 57 160
e 58 62
e 58 71
e 58 74
e 58 81
e 58 97
e 58 103
e 58 105
e 58 115
e 58 117
e 58 119
e 58 121
e 58 122
e 58 124
e 58 125
e 58 131
e 58 133
e 58 138
e 58 146
e 58 147
e 59 66
e 59 71
e 59 73
e 59 76
e 59 83
e 59 87
e 59 92
e 59 94
e 59 107
e 59 120
e 59 122
e 59 133
e 59 143
e 59 144
e 59 150
e 59 158
e 59 159
e 60 66
e 60 69
e 60 73
e 60 78
e 60 79
e 60 88
e 60 91
e 60 96
e 60 103
e 60 106
e 60 114
e 60 115
e 60 120
e 60 129
e 60 143
e 60 146
e 60 149
e 60 156
e 61 63
e 61 64
e 61 67
e 61 73
e 61 74
e 61 81
e 61 83
e 61 90
e 61 91
e 61 94
e 61 108
e 61 110
e 61 116
e 61 117
e 61 132
e 61 136
e 61 137
e 61 139
e 61 142
e 62 64
e 62 100
e 62 108
e 62 119
e 62 121
e 62 133
e 62 138
e 62 140
e 62 144
e 62 145
e 62 157
e 62 158
e 63 65
e 63 79
e 63 91
e 63 111
e 63 116
e 63 120
e 63 122
e 63 131
e 63 139
e 63 141
e 63 142
e 64 66
e 64 67
e 64 68
e 64 76
e 64 85
e 64 87
e 64 90
e 64 92
e 64 95
e 64 98
e 64 101
e 64 104
e 64 106
e 64 120
e 64 124
e 64 131
e 64 132
e 64 134
e 64 136
e 64 144
e 64 150
e 64 154
e 64 157
e 65 69
e 65 78
e 65 85
e 65 86
e 65 88
e 65 90
e 65 95
e 65 97
e 65 99
e 65 102
e 65 114
e 65 118
e 65 119
e 65 124
e 65 126
e 65 127
e 65 129
e 65 130
e 65 131
e 65 136
e 65 138
e 65 149
e 66 76
e 66 78
e 66 82
e 66 85
e 66 92
e 66 98
e 66 100
e 66 105
e 66 108
e 66 112
e 66 119
e 66 121
e 66 125
e 66 127
e 66 141
e 66 146
e 66 152
e 66 154
e 66 156
e 66 158
e 66 160
e 67 71
e 67 72
e 67 80
e 67 81
e 67 133
e 67 140
e 67 146
e 67 152
e 67 159
e 68 70
e 68 72
e 68 74
e 68 76
e 68 79
e 68 81
e 68 82
e 68 84
e 68 87
e 68 93
e 68 97
e 68 99
e 68 100
e 68 105
e 68 118
e 68 121
e 68 126
e 68 127
e 68 132
e 68 134
e 68 139
e 68 141
e 68 143
e 68 144
e 68 155
e 68 157
e 68 158
e 69 71
e 69 74
e 69 81
e 69 83
e 69 84
e 69 88
e 69 105
e 69 118
e 69 120
e 69 132
e 69 139
e 69 148
e 69 155
e 69 156
e 69 159
e 70 72
e 70 100
e 70 102
e 70 104
e 70 108
e 70 111
e 70 115
e 70 122
e 70 125
e 70 140
e 70 141
e 70 144
e 70 160
e 71 78
e 71 82
e 71 93
e 71 95
e 71 99
e 71 100
e 71 101
e 71 104
e 71 109
e 71 123
e 71 124
e 71 130
e 71 136
e 71 137
e 71 141
e 71 142
e 71 144
e 71 146
e 71 147
e 71 153
e 71 155
e 72 74
e 72 80
e 72 83
e 72 84
e 72 93
e 72 98
e 72 100
e 72 106
e 72 108
e 72 125
e 72 127
e 72 128
e 72 129
e 72 133
e 72 136
e 72 138
e 72 139
e 72 143
e 72 144
e 72 145
e 72 147
e 72 150
e 73 89
e 73 91
e 73 92
e 73 105
e 73 124
e 73 133
e 73 135
e 73 141
e 73 146
e 73 153
e 73 154
e 73 159
e 74 75
e 74 85
e 74 94
e 74 95
e 74 98
e 74 103
e 74 108
e 74 109
e 74 114
e 74 118
e 74 127
e 74 128
e 74 133
e 74 148
e 75 77
e 75 81
e 75 82
e 75 87
e 75 95
e 75 98
e 75 107
e 75 113
e 75 116
e 75 120
e 75 122
e 75 124
e 75 127
e 75 131
e 75 136
e 75 137
e 75 142
e 75 144
e 75 145
e 76 80
e 76 83
e 76 85
e 76 87
e 76 89
e 76 90
e 76 94
e 76 96
e 76 97
e 76 101
e 76 105
e 76 110
e 76 115
e 76 117
e 76 120
e 76 127
e 76 132
e 76 142
e 76 151
e 77 81
e 77 94
e 77 99
e 77 109
e 77 110
e 77 117
e 77 118
e 77 154
e 77 160
e 78 79
e 78 84
e 78 85
e 78 94
e 78 96
e 78 100
e 78 102
e 78 103
e 78 105
e 78 116
e 78 123
e 78 130
e 78 131
e 78 144
e 78 153
e 78 157
e 78 159
e 79 85
e 79 86
e 79 87
e 79 91
e 79 93
e 79 97
e 79 98
e 79 103
e 79 106
e 79 110
e 79 111
e 79 113
e 79 118
e 79 120
e 79 123
e 79 124
e 79 132
e 79 138
e 79 140
e 79 141
e 79 143
e 79 145
e 79 147
e 79 155
e 79 158
e 80 82
e 80 86
e 80 89
e 80 92
e 80 95
e 80 97
e 80 111
e 80 114
e 80 117
e 80 120
e 80 127
e 80 148
e 80 151
e 81 83
e 81 85
e 81 92
e 81 99
e 81 103
e 81 104
e 81 112
e 81 118
e 81 122
e 81 123
e 81 124
e 81 137
e 81 144
e 81 155
e 82 98
e 82 108
e 82 112
e 82 117
e 82 123
e 82 126
e 82 133
e 82 138
e 82 141
e 82 147
e 82 151
e 82 152
e 82 159
e 83 85
e 83 90
e 83 91
e 83 92
e 83 96
e 83 97
e 83 100
e 83 103
e 83 107
e 83 113
e 83 121
e 83 122
e 83 125
e 83 128
e 83 138
e 83 140
e 83 147
e 83 149
e 83 150
e 83 152
e 83 153
e 83 154
e 83 157
e 83 158
e 84 97
e 84 99
e 84 102
e 84 110
e 84 112
e 84 115
e 84 123
e 84 126
e 84 133
e 84 140
e 84 141
e 84 142
e 84 143
e 84 146
e 84 148
e 84 150
e 84 153
e 84 155
e 84 156
e 85 86
e 85 87
e 85 90
e 85 95
e 85 97
e 85 100
e 85 127
e 85 128
e 85 142
e 85 155
e 86 96
e 86 108
e 86 111
e 86 112
e 86 113
e 86 120
e 86 126
e 86 131
e 86 140
e 86 141
e 86 149
e 86 156
e 86 159
e 87 88
e 87 93
e 87 95
e 87 98
e 87 108
e 87 114
e 87 115
e 87 119
e 87 120
e 87 122
e 87 132
e 87 143
e 87 153
e 87 154
e 88 95
e 88 97
e 88 105
e 88 106
e 88 114
e 88 120
e 88 121
e 88 130
e 88 133
e 88 134
e 88 145
e 88 151
e 88 152
e 88 160
e 89 91
e 89 96
e 89 97
e 89 100
e 89 104
e 89 106
e 89 115
e 89 121
e 89 123
e 89 135
e 89 142
e 89 148
e 89 153
e 89 154
e 89 155
e 89 156
e 89 158
e 89 160
e 90 91
e 90 92
e 90 95
e 90 96
e 90 119
e 90 126
e 90 136
e 90 140
e 90 142
e 90 152
e 90 154
e 90 160
e 91 95
e 91 97
e 91 98
e 91 101
e 91 102
e 91 107
e 91 108
e 91 113
e 91 117
e 91 125
e 91 132
e 91 135
e 91 141
e 91 144
e 91 146
e 91 152
e 91 156
e 91 160
e 92 94
e 92 96
e 92 97
e 92 100
e 92 102
e 92 103
e 92 105
e 92 106
e 92 112
e 92 113
e 92 116
e 92 117
e 92 122
e 92 142
e 92 150
e 92 158
e 92 160
e 93 94
e 93 96
e 93 98
e 93 99
e 93 104
e 93 107
e 93 110
e 93 116
e 93 126
e 93 127
e 93 128
e 93 139
e 93 150
e 93 153
e 93 156
e 93 159
e 94 102
e 94 106
e 94 108
e 94 113
e 94 114
e 94 123
e 94 128
e 94 131
e 94 143
e 94 144
e 94 146
e 94 148
e 94 151
e 94 158
e 94 160
e 95 101
e 95 104
e 95 105
e 95 121
e 95 128
e 95 131
e 95 133
e 95 142
e 95 146
e 95 152
e 95 156
e 96 99
e 96 101
e 96 107
e 96 108
e 96 115
e 96 123
e 96 126
e 96 127
e 96 131
e 96 143
e 96 146
e 97 98
e 97 99
e 97 108
e 97 120
e 97 122
e 97 125
e 97 137
e 97 147
e 97 151
e 98 110
e 98 112
e 98 122
e 98 130
e 98 135
e 98 136
e 98 139
e 98 145
e 98 146
e 98 147
e 98 153
e 98 155
e 98 158
e 99 101
e 99 105
e 99 107
e 99 108
e 99 109
e 99 115
e 99 117
e 99 125
e 99 132
e 99 136
e 99 138
e 99 140
e 99 145
e 99 150
e 99 151
e 99 156
e 100 103
e 100 108
e 100 115
e 100 123
e 100 128
e 100 132
e 100 133
e 100 139
e 100 151
e 100 152
e 101 105
e 101 119
e 101 124
e 101 130
e 101 131
e 101 145
e 101 147
e 101 153
e 102 111
e 102 112
e 102 122
e 102 124
e 102 129
e 102 130
e 102 133
e 102 135
e 102 137
e 102 143
e 102 145
e 102 147
e 102 152
e 102 158
e 103 114
e 103 118
e 103 119
e 103 124
e 103 126
e 103 129
e 103 130
e 103 132
e 103 136
e 103 137
e 103 138
e 103 141
e 103 143
e 103 155
e 103 158
e 104 110
e 104 114
e 104 115
e 104 126
e 104 129
e 104 133
e 104 136
e 104 138
e 104 139
e 104 142
e 104 154
e 104 156
e 105 109
e 105 112
e 105 116
e 105 119
e 105 128
e 105 133
e 105 142
e 105 146
e 105 150
e 105 159
e 106 117
e 106 118
e 106 122
e 106 129
e 106 145
e 106 151
e 106 153
e 106 156
e 106 157
e 106 160
e 107 108
e 107 114
e 107 115
e 107 117
e 107 120
e 107 123
e 107 126
e 107 131
e 107 139
e 107 141
e 107 143
e 107 147
e 107 149
e 107 151
e 108 110
e 108 117
e 108 121
e 108 123
e 108 124
e 108 125
e 108 127
e 108 130
e 108 131
e 108 139
e 108 142
e 108 143
e 108 147
e 108 149
e 109 127
e 109 129
e 109 132
e 109 135
e 109 138
e 109 139
e 109 141
e 109 145
e 109 148
e 109 153
e 109 156
e 109 157
e 109 159
e 110 111
e 110 114
e 110 117
e 110 137
e 110 138
e 110 140
e 110 145
e 110 146
e 110 147
e 110 148
e 110 149
e 111 117
e 111 123
e 111 126
e 111 128
e 111 130
e 111 134
e 111 135
e 111 136
e 111 137
e 111 141
e 111 142
e 111 146
e 111 158
e 112 114
e 112 115
e 112 117
e 112 121
e 112 122
e 112 126
e 112 135
e 112 150
e 112 158
e 113 116
e 113 117
e 113 126
e 113 133
e 113 134
e 113 135
e 113 146
e 113 152
e 113 156
e 114 116
e 114 125
e 114 126
e 114 133
e 114 135
e 114 136
e 114 139
e 114 140
e 114 147
e 115 122
e 115 123
e 115 126
e 115 130
e 115 131
e 115 136
e 115 139
e 115 145
e 115 154
e 115 157
e 116 125
e 116 131
e 116 134
e 116 137
e 116 150
e 116 155
e 117 119
e 117 121
e 117 122
e 117 124
e 117 126
e 117 127
e 117 129
e 117 130
e 117 134
e 117 136
e 117 139
e 117 145
e 117 150
e 117 152
e 117 155
e 117 156
e 117 157
e 118 124
e 118 125
e 118 126
e 118 128
e 118 133
e 118 137
e 118 139
e 118 142
e 118 143
e 118 152
e 119 122
e 119 130
e 119 132
e 119 134
e 119 138
e 119 139
e 119 146
e 119 149
e 119 153
e 119 158
e 119 160
e 120 124
e 120 125
e 120 132
e 120 135
e 120 136
e 120 152
e 120 157
e 120 158
e 120 160
e 121 122
e 121 126
e 121 135
e 121 137
e 121 143
e 121 151
e 121 154
e 122 131
e 122 137
e 122 142
e 122 153
e 122 156
e 123 133
e 123 142
e 123 143
e 123 146
e 123 147
e 123 148
e 123 158
e 123 160
e 124 132
e 124 136
e 124 137
e 124 142
e 124 144
e 124 148
e 124 150
e 124 154
e 125 127
e 125 128
e 125 135
e 125 136
e 125 139
e 125 142
e 125 146
e 125 154
e 126 132
e 126 134
e 126 156
e 127 153
e 128 136
e 128 137
e 128 141
e 128 149
e 128 157
e 128 158
e 129 133
e 129 136
e 129 155
e 129 159
e 130 135
e 130 136
e 130 142
e 130 149
e 130 150
e 130 151
e 130 155
e 130 156
e 130 158
e 131 134
e 131 136
e 131 137
e 131 145
e 131 146
e 131 152
e 131 157
e 132 133
e 132 139
e 132 141
e 132 142
e 132 148
e 132 151
e 132 157
e 132 158
e 133 137
e 133 148
e 133 152
e 133 154
e 133 155
e 133 159
e 134 136
e 134 140
e 134 144
e 134 145
e 134 146
e 134 150
e 134 154
e 134 155
e 135 137
e 135 146
e 135 150
e 135 151
e 135 156
e 136 139
e 136 140
e 136 146
e 136 152
e 136 153
e 136 155
e 136 158
e 137 139
e 137 141
e 137 151
e 137 159
e 138 141
e 138 144
e 138 153
e 139 143
e 139 151
e 139 156
e 139 158
e 140 147
e 140 151
e 141 144
e 141 154
e 141 155
e 141 159
e 142 143
e 142 145
e 142 159
e 143 150
e 143 151
e 143 153
e 143 159
e 143 160
e 144 148
e 144 153
e 144 156
e 144 160
e 145 151
e 145 159
e 146 150
e 146 153
e 147 151
e 147 154
e 147 157
e 147 159
e 148 150
e 148 153
e 148 160
e 149 153
e 149 154
e 149 159
e 149 160
e 150 156
e 150 159
e 151 157
e 152 155
e 152 157
e 152 158
e 153 160
e 154 155
e 154 157
e 154 158
e 157 158
e 159 160
